50
    92    27    14    25    21     4    31    68    16    96     9    73    52    65     5    50    95    92    20    73     1    70    90    83    18    11    98    84    82    39    62    47    22    96    44    11    57    40    46    76    97    42     9    12    41    93    17    52    80    95
     7     9     1     9     6     9     9     4     2     5     1     3     4     8     6     2     1     6     9     7     7    10     1     1     4     6     4     1     2     5     2     1     8     3     2     4     5    10     2     5     4     1     4     7     4     5     9     4     9     7
  2403  1141  2419  1957  2448  1071  1880  1500   550  1384   606   736  1720  1434  1466  1360  1489   852   800  2010  1218   762  2216  1004  2072  1932   889  2118  2024  1920  1418  1056  2020  1360  2130  1398   963  1104   740  1062  1872  2413  1015  2159   768  2065  2170  1521   964   681
